0 20 30 10 25 60 70 80 90 40
20 0 15 35 50 65 30 85 25 45
30 15 0 40 55 20 75 60 85 35
10 35 40 0 65 80 95 25 70 50
25 50 55 65 0 95 40 75 90 65
60 65 20 80 95 0 85 100 15 80
70 30 75 95 40 85 0 55 70 45
80 85 60 25 75 100 55 0 85 60
90 25 85 70 90 15 70 85 0 75
40 45 35 50 65 80 45 60 75 0
